(set-logic QF_UF)
(declare-fun A0 () Bool)
(declare-fun A1 () Bool)
(declare-fun A2 () Bool)
(declare-fun A3 () Bool)
(declare-fun A4 () Bool)
(declare-fun A5 () Bool)
(declare-fun A6 () Bool)
(declare-fun A7 () Bool)
(declare-fun A8 () Bool)
(declare-fun A9 () Bool)
(declare-fun A10 () Bool)
(declare-fun A11 () Bool)
(declare-fun A12 () Bool)
(declare-fun A13 () Bool)
(declare-fun A14 () Bool)
(declare-fun A15 () Bool)
(declare-fun A16 () Bool)
(declare-fun A17 () Bool)
(declare-fun A18 () Bool)
(declare-fun A19 () Bool)
(declare-fun A20 () Bool)
(declare-fun A21 () Bool)
(declare-fun A22 () Bool)
(declare-fun A23 () Bool)
(declare-fun A24 () Bool)
(assert (let ((.def_0 (and A5 A23))) (let ((.def_1 (not .def_0))) (let ((.def_2 (or A14 A7))) (let ((.def_3 (not .def_2))) (let ((.def_4 (or .def_3 .def_1))) (let ((.def_5 (not A18))) (let ((.def_6 (or .def_5 A12))) (let ((.def_7 (not A24))) (let ((.def_8 (not A14))) (let ((.def_9 (or .def_8 .def_7))) (let ((.def_10 (not .def_9))) (let ((.def_11 (or .def_10 .def_6))) (let ((.def_12 (not .def_11))) (let ((.def_13 (and .def_12 .def_4))) (let ((.def_14 (not A1))) (let ((.def_15 (or .def_14 A7))) (let ((.def_16 (not A21))) (let ((.def_17 (and A24 .def_16))) (let ((.def_18 (not .def_17))) (let ((.def_19 (and .def_18 .def_15))) (let ((.def_20 (not .def_19))) (let ((.def_21 (not A23))) (let ((.def_22 (and A8 .def_21))) (let ((.def_23 (not .def_22))) (let ((.def_24 (or A2 A14))) (let ((.def_25 (not .def_24))) (let ((.def_26 (or .def_25 .def_23))) (let ((.def_27 (or .def_26 .def_20))) (let ((.def_28 (not .def_27))) (let ((.def_29 (or .def_28 .def_13))) (let ((.def_30 (not .def_29))) (let ((.def_31 (or A14 .def_8))) (let ((.def_32 (or A7 A7))) (let ((.def_33 (or .def_32 .def_31))) (let ((.def_34 (not .def_33))) (let ((.def_35 (or .def_21 .def_21))) (let ((.def_36 (or A0 .def_8))) (let ((.def_37 (or .def_36 .def_35))) (let ((.def_38 (and .def_37 .def_34))) (let ((.def_39 (not A20))) (let ((.def_40 (or A1 .def_39))) (let ((.def_41 (not A6))) (let ((.def_42 (= .def_14 .def_41))) (let ((.def_43 (not .def_42))) (let ((.def_44 (and .def_43 .def_40))) (let ((.def_45 (not A15))) (let ((.def_46 (and .def_45 A11))) (let ((.def_47 (not .def_46))) (let ((.def_48 (not A11))) (let ((.def_49 (and .def_7 .def_48))) (let ((.def_50 (= .def_49 .def_47))) (let ((.def_51 (not .def_50))) (let ((.def_52 (or .def_51 .def_44))) (let ((.def_53 (or .def_52 .def_38))) (let ((.def_54 (and .def_53 .def_30))) (let ((.def_55 (or A15 A10))) (let ((.def_56 (and A14 A10))) (let ((.def_57 (not .def_56))) (let ((.def_58 (and .def_57 .def_55))) (let ((.def_59 (not .def_58))) (let ((.def_60 (and .def_7 .def_14))) (let ((.def_61 (and .def_41 A18))) (let ((.def_62 (not .def_61))) (let ((.def_63 (and .def_62 .def_60))) (let ((.def_64 (not .def_63))) (let ((.def_65 (and .def_64 .def_59))) (let ((.def_66 (not .def_65))) (let ((.def_67 (not A0))) (let ((.def_68 (and .def_21 .def_67))) (let ((.def_69 (not .def_68))) (let ((.def_70 (not A9))) (let ((.def_71 (or .def_5 .def_70))) (let ((.def_72 (or .def_71 .def_69))) (let ((.def_73 (or A9 .def_7))) (let ((.def_74 (not .def_73))) (let ((.def_75 (or A0 .def_14))) (let ((.def_76 (or .def_75 .def_74))) (let ((.def_77 (and .def_76 .def_72))) (let ((.def_78 (or .def_77 .def_66))) (let ((.def_79 (not .def_78))) (let ((.def_80 (and A12 A16))) (let ((.def_81 (or A0 A14))) (let ((.def_82 (not .def_81))) (let ((.def_83 (and .def_82 .def_80))) (let ((.def_84 (= A14 A4))) (let ((.def_85 (not .def_84))) (let ((.def_86 (= .def_21 A23))) (let ((.def_87 (not .def_86))) (let ((.def_88 (and .def_87 .def_85))) (let ((.def_89 (not .def_88))) (let ((.def_90 (= .def_89 .def_83))) (let ((.def_91 (and A10 A18))) (let ((.def_92 (or A7 .def_41))) (let ((.def_93 (not .def_92))) (let ((.def_94 (and .def_93 .def_91))) (let ((.def_95 (not .def_94))) (let ((.def_96 (not A8))) (let ((.def_97 (or A11 .def_96))) (let ((.def_98 (not .def_97))) (let ((.def_99 (and .def_5 A2))) (let ((.def_100 (and .def_99 .def_98))) (let ((.def_101 (not .def_100))) (let ((.def_102 (or .def_101 .def_95))) (let ((.def_103 (and .def_102 .def_90))) (let ((.def_104 (not .def_103))) (let ((.def_105 (and .def_104 .def_79))) (let ((.def_106 (not .def_105))) (let ((.def_107 (and .def_106 .def_54))) (let ((.def_108 (not .def_107))) (let ((.def_109 (not A16))) (let ((.def_110 (and .def_109 .def_21))) (let ((.def_111 (not A17))) (let ((.def_112 (not A19))) (let ((.def_113 (or .def_112 .def_111))) (let ((.def_114 (not .def_113))) (let ((.def_115 (or .def_114 .def_110))) (let ((.def_116 (not .def_115))) (let ((.def_117 (and .def_41 .def_21))) (let ((.def_118 (not .def_117))) (let ((.def_119 (and A21 A5))) (let ((.def_120 (not .def_119))) (let ((.def_121 (and .def_120 .def_118))) (let ((.def_122 (not .def_121))) (let ((.def_123 (or .def_122 .def_116))) (let ((.def_124 (and .def_111 A0))) (let ((.def_125 (or .def_96 .def_39))) (let ((.def_126 (and .def_125 .def_124))) (let ((.def_127 (not A3))) (let ((.def_128 (or A21 .def_127))) (let ((.def_129 (not .def_128))) (let ((.def_130 (= A22 A2))) (let ((.def_131 (not .def_130))) (let ((.def_132 (and .def_131 .def_129))) (let ((.def_133 (not .def_132))) (let ((.def_134 (= .def_133 .def_126))) (let ((.def_135 (or .def_134 .def_123))) (let ((.def_136 (or .def_14 .def_14))) (let ((.def_137 (not A13))) (let ((.def_138 (and .def_137 A17))) (let ((.def_139 (= .def_138 .def_136))) (let ((.def_140 (not .def_139))) (let ((.def_141 (or A18 .def_112))) (let ((.def_142 (not .def_141))) (let ((.def_143 (= A11 .def_96))) (let ((.def_144 (or .def_143 .def_142))) (let ((.def_145 (not .def_144))) (let ((.def_146 (and .def_145 .def_140))) (let ((.def_147 (not .def_146))) (let ((.def_148 (and A15 A2))) (let ((.def_149 (not .def_148))) (let ((.def_150 (or A0 A17))) (let ((.def_151 (and .def_150 .def_149))) (let ((.def_152 (not .def_151))) (let ((.def_153 (or .def_67 A3))) (let ((.def_154 (= A19 A11))) (let ((.def_155 (not .def_154))) (let ((.def_156 (and .def_155 .def_153))) (let ((.def_157 (not .def_156))) (let ((.def_158 (or .def_157 .def_152))) (let ((.def_159 (= .def_158 .def_147))) (let ((.def_160 (or .def_159 .def_135))) (let ((.def_161 (not .def_160))) (let ((.def_162 (= .def_7 A12))) (let ((.def_163 (not .def_162))) (let ((.def_164 (= .def_111 .def_48))) (let ((.def_165 (and .def_164 .def_163))) (let ((.def_166 (not A22))) (let ((.def_167 (and .def_166 A21))) (let ((.def_168 (not .def_167))) (let ((.def_169 (and .def_41 .def_5))) (let ((.def_170 (= .def_169 .def_168))) (let ((.def_171 (not .def_170))) (let ((.def_172 (and .def_171 .def_165))) (let ((.def_173 (not .def_172))) (let ((.def_174 (and .def_14 A12))) (let ((.def_175 (not A4))) (let ((.def_176 (or A16 .def_175))) (let ((.def_177 (or .def_176 .def_174))) (let ((.def_178 (not A7))) (let ((.def_179 (or .def_178 A21))) (let ((.def_180 (not .def_179))) (let ((.def_181 (and .def_70 .def_16))) (let ((.def_182 (or .def_181 .def_180))) (let ((.def_183 (or .def_182 .def_177))) (let ((.def_184 (and .def_183 .def_173))) (let ((.def_185 (not A2))) (let ((.def_186 (or .def_185 .def_175))) (let ((.def_187 (not .def_186))) (let ((.def_188 (not A10))) (let ((.def_189 (or .def_188 .def_137))) (let ((.def_190 (not .def_189))) (let ((.def_191 (and .def_190 .def_187))) (let ((.def_192 (not .def_191))) (let ((.def_193 (= A24 .def_45))) (let ((.def_194 (not .def_193))) (let ((.def_195 (and .def_96 A24))) (let ((.def_196 (not .def_195))) (let ((.def_197 (and .def_196 .def_194))) (let ((.def_198 (or .def_197 .def_192))) (let ((.def_199 (or .def_8 .def_127))) (let ((.def_200 (or A24 A3))) (let ((.def_201 (not .def_200))) (let ((.def_202 (and .def_201 .def_199))) (let ((.def_203 (or .def_16 A24))) (let ((.def_204 (not .def_203))) (let ((.def_205 (and A8 .def_175))) (let ((.def_206 (not .def_205))) (let ((.def_207 (or .def_206 .def_204))) (let ((.def_208 (not .def_207))) (let ((.def_209 (and .def_208 .def_202))) (let ((.def_210 (not .def_209))) (let ((.def_211 (or .def_210 .def_198))) (let ((.def_212 (and .def_211 .def_184))) (let ((.def_213 (and .def_212 .def_161))) (let ((.def_214 (not .def_213))) (let ((.def_215 (and .def_214 .def_108))) (let ((.def_216 (or A1 A18))) (let ((.def_217 (and A23 .def_45))) (let ((.def_218 (or .def_217 .def_216))) (let ((.def_219 (not .def_218))) (let ((.def_220 (or A7 .def_185))) (let ((.def_221 (and .def_185 .def_185))) (let ((.def_222 (not .def_221))) (let ((.def_223 (or .def_222 .def_220))) (let ((.def_224 (or .def_223 .def_219))) (let ((.def_225 (not .def_224))) (let ((.def_226 (or A1 .def_41))) (let ((.def_227 (not .def_226))) (let ((.def_228 (and A15 A20))) (let ((.def_229 (= .def_228 .def_227))) (let ((.def_230 (not .def_229))) (let ((.def_231 (and A23 .def_96))) (let ((.def_232 (not A12))) (let ((.def_233 (and .def_232 .def_48))) (let ((.def_234 (not .def_233))) (let ((.def_235 (or .def_234 .def_231))) (let ((.def_236 (and .def_235 .def_230))) (let ((.def_237 (or .def_236 .def_225))) (let ((.def_238 (not .def_237))) (let ((.def_239 (= A7 .def_67))) (let ((.def_240 (not .def_239))) (let ((.def_241 (and .def_175 A16))) (let ((.def_242 (not .def_241))) (let ((.def_243 (and .def_242 .def_240))) (let ((.def_244 (and .def_112 A15))) (let ((.def_245 (or .def_175 .def_111))) (let ((.def_246 (not .def_245))) (let ((.def_247 (and .def_246 .def_244))) (let ((.def_248 (not .def_247))) (let ((.def_249 (or .def_248 .def_243))) (let ((.def_250 (not .def_249))) (let ((.def_251 (or .def_7 A16))) (let ((.def_252 (and A21 .def_8))) (let ((.def_253 (not .def_252))) (let ((.def_254 (and .def_253 .def_251))) (let ((.def_255 (and .def_39 A4))) (let ((.def_256 (not .def_255))) (let ((.def_257 (and .def_5 .def_188))) (let ((.def_258 (not .def_257))) (let ((.def_259 (or .def_258 .def_256))) (let ((.def_260 (not .def_259))) (let ((.def_261 (or .def_260 .def_254))) (let ((.def_262 (and .def_261 .def_250))) (let ((.def_263 (and .def_262 .def_238))) (let ((.def_264 (= A0 .def_45))) (let ((.def_265 (and A13 .def_178))) (let ((.def_266 (= .def_265 .def_264))) (let ((.def_267 (not .def_266))) (let ((.def_268 (or A6 A9))) (let ((.def_269 (and A9 A4))) (let ((.def_270 (not .def_269))) (let ((.def_271 (= .def_270 .def_268))) (let ((.def_272 (not .def_271))) (let ((.def_273 (or .def_272 .def_267))) (let ((.def_274 (or .def_8 A0))) (let ((.def_275 (and .def_48 .def_137))) (let ((.def_276 (or .def_275 .def_274))) (let ((.def_277 (and .def_175 A1))) (let ((.def_278 (and A10 .def_109))) (let ((.def_279 (and .def_278 .def_277))) (let ((.def_280 (or .def_279 .def_276))) (let ((.def_281 (not .def_280))) (let ((.def_282 (or .def_281 .def_273))) (let ((.def_283 (and A9 .def_111))) (let ((.def_284 (not .def_283))) (let ((.def_285 (or A10 A1))) (let ((.def_286 (not .def_285))) (let ((.def_287 (and .def_286 .def_284))) (let ((.def_288 (not .def_287))) (let ((.def_289 (or A18 A3))) (let ((.def_290 (= .def_289 .def_80))) (let ((.def_291 (= .def_290 .def_288))) (let ((.def_292 (or A5 .def_45))) (let ((.def_293 (not .def_292))) (let ((.def_294 (or A11 A19))) (let ((.def_295 (and .def_294 .def_293))) (let ((.def_296 (not .def_295))) (let ((.def_297 (and .def_21 .def_21))) (let ((.def_298 (not .def_297))) (let ((.def_299 (and .def_96 A18))) (let ((.def_300 (and .def_299 .def_298))) (let ((.def_301 (not .def_300))) (let ((.def_302 (and .def_301 .def_296))) (let ((.def_303 (and .def_302 .def_291))) (let ((.def_304 (not .def_303))) (let ((.def_305 (or .def_304 .def_282))) (let ((.def_306 (or .def_305 .def_263))) (let ((.def_307 (not .def_306))) (let ((.def_308 (and A24 .def_8))) (let ((.def_309 (or .def_67 A0))) (let ((.def_310 (= .def_309 .def_308))) (let ((.def_311 (or .def_16 .def_16))) (let ((.def_312 (or A8 A4))) (let ((.def_313 (= .def_312 .def_311))) (let ((.def_314 (not .def_313))) (let ((.def_315 (and .def_314 .def_310))) (let ((.def_316 (or A23 .def_166))) (let ((.def_317 (not .def_316))) (let ((.def_318 (and A20 .def_96))) (let ((.def_319 (not .def_318))) (let ((.def_320 (and .def_319 .def_317))) (let ((.def_321 (not .def_320))) (let ((.def_322 (not A5))) (let ((.def_323 (and .def_322 A5))) (let ((.def_324 (not .def_323))) (let ((.def_325 (or .def_70 .def_111))) (let ((.def_326 (not .def_325))) (let ((.def_327 (or .def_326 .def_324))) (let ((.def_328 (or .def_327 .def_321))) (let ((.def_329 (or .def_328 .def_315))) (let ((.def_330 (not .def_329))) (let ((.def_331 (= .def_67 A19))) (let ((.def_332 (and .def_39 .def_137))) (let ((.def_333 (not .def_332))) (let ((.def_334 (and .def_333 .def_331))) (let ((.def_335 (or .def_14 A2))) (let ((.def_336 (not .def_335))) (let ((.def_337 (and .def_5 A11))) (let ((.def_338 (not .def_337))) (let ((.def_339 (and .def_338 .def_336))) (let ((.def_340 (not .def_339))) (let ((.def_341 (or .def_340 .def_334))) (let ((.def_342 (not .def_341))) (let ((.def_343 (and .def_45 .def_48))) (let ((.def_344 (not .def_343))) (let ((.def_345 (or A7 A24))) (let ((.def_346 (or .def_345 .def_344))) (let ((.def_347 (not .def_346))) (let ((.def_348 (and A16 A13))) (let ((.def_349 (not .def_348))) (let ((.def_350 (not .def_31))) (let ((.def_351 (or .def_350 .def_349))) (let ((.def_352 (and .def_351 .def_347))) (let ((.def_353 (and .def_352 .def_342))) (let ((.def_354 (not .def_353))) (let ((.def_355 (= .def_354 .def_330))) (let ((.def_356 (or A6 .def_14))) (let ((.def_357 (not .def_356))) (let ((.def_358 (and A20 A10))) (let ((.def_359 (or .def_358 .def_357))) (let ((.def_360 (not .def_359))) (let ((.def_361 (= A1 A2))) (let ((.def_362 (or .def_14 .def_96))) (let ((.def_363 (= .def_362 .def_361))) (let ((.def_364 (or .def_363 .def_360))) (let ((.def_365 (or A22 .def_70))) (let ((.def_366 (or A20 .def_111))) (let ((.def_367 (or .def_366 .def_365))) (let ((.def_368 (not .def_367))) (let ((.def_369 (= .def_48 .def_188))) (let ((.def_370 (or .def_21 .def_7))) (let ((.def_371 (not .def_370))) (let ((.def_372 (and .def_371 .def_369))) (let ((.def_373 (not .def_372))) (let ((.def_374 (or .def_373 .def_368))) (let ((.def_375 (or .def_374 .def_364))) (let ((.def_376 (and .def_14 A23))) (let ((.def_377 (not .def_376))) (let ((.def_378 (and A13 .def_188))) (let ((.def_379 (not .def_378))) (let ((.def_380 (and .def_379 .def_377))) (let ((.def_381 (or .def_112 A10))) (let ((.def_382 (or .def_41 .def_109))) (let ((.def_383 (not .def_382))) (let ((.def_384 (or .def_383 .def_381))) (let ((.def_385 (or .def_384 .def_380))) (let ((.def_386 (and .def_175 .def_96))) (let ((.def_387 (or .def_386 .def_258))) (let ((.def_388 (= A12 A7))) (let ((.def_389 (not .def_388))) (let ((.def_390 (or A21 .def_109))) (let ((.def_391 (not .def_390))) (let ((.def_392 (or .def_391 .def_389))) (let ((.def_393 (and .def_392 .def_387))) (let ((.def_394 (and .def_393 .def_385))) (let ((.def_395 (not .def_394))) (let ((.def_396 (or .def_395 .def_375))) (let ((.def_397 (not .def_396))) (let ((.def_398 (or .def_397 .def_355))) (let ((.def_399 (= .def_398 .def_307))) (let ((.def_400 (or .def_399 .def_215))) .def_400))))))))))))))))))))))))))))))))))))))))))))))))))))))))))))))))))))))))))))))))))))))))))))))))))))))))))))))))))))))))))))))))))))))))))))))))))))))))))))))))))))))))))))))))))))))))))))))))))))))))))))))))))))))))))))))))))))))))))))))))))))))))))))))))))))))))))))))))))))))))))))))))))))))))))))))))))))))))))))))))))))))))))))))))))))))))))))))))))))))))))))))))))))))))))))))))))))))))))))))))))
(check-sat)
